(set-info :smt-lib-version 2.6)
(set-logic QF_LRA)
(set-info :source |
TLP-GP automated DTP to SMT-LIB encoding for planning
by F.Maris and P.Regnier, IRIT - Universite Paul Sabatier, Toulouse

|)
(set-info :category "industrial")
(set-info :status sat)
(declare-fun St_spy_variable () Real)
(declare-fun t_Init_0 () Real)
(declare-fun t_Goal_6 () Real)
(declare-fun t_BAKE_CERAMIC2_p2_k2_2 () Real)
(declare-fun t_TREAT_CERAMIC2_p2_3 () Real)
(declare-fun t_BAKE_CERAMIC2_p2_k2_3 () Real)
(declare-fun t_BAKE_CERAMIC1_p1_k2_2 () Real)
(declare-fun t_TREAT_CERAMIC1_p1_3 () Real)
(declare-fun t_FIRE_KILN2_k2_2 () Real)
(declare-fun t_BAKE_CERAMIC1_p1_k2_3 () Real)
(declare-fun t_MAKE_STRUCTURE_p1_p2_4 () Real)
(declare-fun t_BAKE_STRUCTURE_p1_p2_k1_5 () Real)
(declare-fun t_BAKE_CERAMIC3_p4_k2_2 () Real)
(declare-fun t_TREAT_CERAMIC3_p4_3 () Real)
(declare-fun t_FIRE_KILN1_k1_2 () Real)
(declare-fun t_BAKE_CERAMIC3_p4_k1_3 () Real)
(declare-fun t_BAKE_CERAMIC2_p3_k2_2 () Real)
(declare-fun t_TREAT_CERAMIC2_p3_3 () Real)
(declare-fun t_FIRE_KILN2_k2_1 () Real)
(declare-fun t_BAKE_CERAMIC2_p3_k2_3 () Real)
(declare-fun t_MAKE_STRUCTURE_p3_p4_4 () Real)
(declare-fun t_BAKE_STRUCTURE_p3_p4_k1_5 () Real)
(declare-fun t_FIRE_KILN1_k1_1 () Real)
(declare-fun t_BAKE_CERAMIC3_p5_k1_2 () Real)
(assert (let ((?v_12 (- t_Goal_6 t_BAKE_STRUCTURE_p1_p2_k1_5)) (?v_22 (- t_Goal_6 t_BAKE_STRUCTURE_p3_p4_k1_5)) (?v_24 (- t_Goal_6 t_BAKE_CERAMIC3_p5_k1_2)) (?v_18 (- t_BAKE_CERAMIC2_p3_k2_3 t_FIRE_KILN2_k2_1))) (let ((?v_2 (<= ?v_18 10)) (?v_16 (- t_BAKE_CERAMIC2_p3_k2_2 t_FIRE_KILN2_k2_1))) (let ((?v_3 (<= ?v_16 10)) (?v_13 (- t_BAKE_CERAMIC3_p4_k2_2 t_FIRE_KILN2_k2_1))) (let ((?v_4 (<= ?v_13 15)) (?v_8 (- t_BAKE_CERAMIC1_p1_k2_2 t_FIRE_KILN2_k2_1))) (let ((?v_5 (<= ?v_8 5)) (?v_7 (- t_BAKE_CERAMIC2_p2_k2_3 t_FIRE_KILN2_k2_1))) (let ((?v_6 (<= ?v_7 10)) (?v_0 (- t_BAKE_CERAMIC2_p2_k2_2 t_FIRE_KILN2_k2_1)) (?v_1 (- t_TREAT_CERAMIC2_p2_3 t_BAKE_CERAMIC2_p2_k2_2)) (?v_9 (- t_TREAT_CERAMIC1_p1_3 t_BAKE_CERAMIC1_p1_k2_2)) (?v_10 (- t_BAKE_CERAMIC1_p1_k2_3 t_FIRE_KILN2_k2_2)) (?v_23 (- t_BAKE_CERAMIC3_p5_k1_2 t_FIRE_KILN1_k1_1))) (let ((?v_19 (<= ?v_23 3)) (?v_21 (- t_BAKE_STRUCTURE_p3_p4_k1_5 t_FIRE_KILN1_k1_1))) (let ((?v_20 (<= ?v_21 5)) (?v_11 (- t_BAKE_STRUCTURE_p1_p2_k1_5 t_FIRE_KILN1_k1_1)) (?v_14 (- t_TREAT_CERAMIC3_p4_3 t_BAKE_CERAMIC3_p4_k2_2)) (?v_15 (- t_BAKE_CERAMIC3_p4_k1_3 t_FIRE_KILN1_k1_2)) (?v_17 (- t_TREAT_CERAMIC2_p3_3 t_BAKE_CERAMIC2_p3_k2_2)) (?v_32 (- t_BAKE_CERAMIC1_p1_k2_3 t_FIRE_KILN2_k2_1)) (?v_31 (> (- t_FIRE_KILN2_k2_2 t_FIRE_KILN2_k2_1) 20))) (let ((?v_27 (or (<= ?v_32 5) ?v_31)) (?v_28 (> (- t_FIRE_KILN2_k2_1 t_FIRE_KILN2_k2_2) 20)) (?v_26 (- t_BAKE_CERAMIC2_p2_k2_2 t_BAKE_CERAMIC2_p2_k2_3)) (?v_25 (- t_BAKE_CERAMIC2_p2_k2_3 t_BAKE_CERAMIC2_p2_k2_2)) (?v_30 (- t_BAKE_CERAMIC1_p1_k2_2 t_BAKE_CERAMIC1_p1_k2_3)) (?v_29 (- t_BAKE_CERAMIC1_p1_k2_3 t_BAKE_CERAMIC1_p1_k2_2)) (?v_37 (- t_BAKE_CERAMIC3_p4_k1_3 t_FIRE_KILN1_k1_1)) (?v_36 (> (- t_FIRE_KILN1_k1_2 t_FIRE_KILN1_k1_1) 8)) (?v_35 (> (- t_FIRE_KILN1_k1_1 t_FIRE_KILN1_k1_2) 8)) (?v_34 (- t_BAKE_CERAMIC3_p4_k2_2 t_BAKE_CERAMIC3_p4_k1_3)) (?v_33 (- t_BAKE_CERAMIC3_p4_k1_3 t_BAKE_CERAMIC3_p4_k2_2)) (?v_39 (- t_BAKE_CERAMIC2_p3_k2_2 t_BAKE_CERAMIC2_p3_k2_3)) (?v_38 (- t_BAKE_CERAMIC2_p3_k2_3 t_BAKE_CERAMIC2_p3_k2_2))) (and (= St_spy_variable (+ 1 t_Init_0)) (>= t_Goal_6 t_Init_0) (>= (- t_BAKE_CERAMIC2_p2_k2_2 t_Init_0) 0) (>= (- t_Goal_6 t_BAKE_CERAMIC2_p2_k2_2) 10) (>= (- t_TREAT_CERAMIC2_p2_3 t_Init_0) 0) (>= (- t_Goal_6 t_TREAT_CERAMIC2_p2_3) 2) (>= (- t_BAKE_CERAMIC2_p2_k2_3 t_Init_0) 0) (>= (- t_Goal_6 t_BAKE_CERAMIC2_p2_k2_3) 10) (>= (- t_BAKE_CERAMIC1_p1_k2_2 t_Init_0) 0) (>= (- t_Goal_6 t_BAKE_CERAMIC1_p1_k2_2) 15) (>= (- t_TREAT_CERAMIC1_p1_3 t_Init_0) 0) (>= (- t_Goal_6 t_TREAT_CERAMIC1_p1_3) 3) (>= (- t_FIRE_KILN2_k2_2 t_Init_0) 0) (>= (- t_Goal_6 t_FIRE_KILN2_k2_2) 20) (>= (- t_BAKE_CERAMIC1_p1_k2_3 t_Init_0) 0) (>= (- t_Goal_6 t_BAKE_CERAMIC1_p1_k2_3) 15) (>= (- t_MAKE_STRUCTURE_p1_p2_4 t_Init_0) 0) (>= (- t_Goal_6 t_MAKE_STRUCTURE_p1_p2_4) 1) (>= (- t_BAKE_STRUCTURE_p1_p2_k1_5 t_Init_0) 0) (>= ?v_12 3) (>= (- t_BAKE_CERAMIC3_p4_k2_2 t_Init_0) 0) (>= (- t_Goal_6 t_BAKE_CERAMIC3_p4_k2_2) 5) (>= (- t_TREAT_CERAMIC3_p4_3 t_Init_0) 0) (>= (- t_Goal_6 t_TREAT_CERAMIC3_p4_3) 1) (>= (- t_FIRE_KILN1_k1_2 t_Init_0) 0) (>= (- t_Goal_6 t_FIRE_KILN1_k1_2) 8) (>= (- t_BAKE_CERAMIC3_p4_k1_3 t_Init_0) 0) (>= (- t_Goal_6 t_BAKE_CERAMIC3_p4_k1_3) 5) (>= (- t_BAKE_CERAMIC2_p3_k2_2 t_Init_0) 0) (>= (- t_Goal_6 t_BAKE_CERAMIC2_p3_k2_2) 10) (>= (- t_TREAT_CERAMIC2_p3_3 t_Init_0) 0) (>= (- t_Goal_6 t_TREAT_CERAMIC2_p3_3) 2) (>= (- t_FIRE_KILN2_k2_1 t_Init_0) 0) (>= (- t_Goal_6 t_FIRE_KILN2_k2_1) 20) (>= (- t_BAKE_CERAMIC2_p3_k2_3 t_Init_0) 0) (>= (- t_Goal_6 t_BAKE_CERAMIC2_p3_k2_3) 10) (>= (- t_MAKE_STRUCTURE_p3_p4_4 t_Init_0) 0) (>= (- t_Goal_6 t_MAKE_STRUCTURE_p3_p4_4) 1) (>= (- t_BAKE_STRUCTURE_p3_p4_k1_5 t_Init_0) 0) (>= ?v_22 3) (>= (- t_FIRE_KILN1_k1_1 t_Init_0) 0) (>= (- t_Goal_6 t_FIRE_KILN1_k1_1) 8) (>= (- t_BAKE_CERAMIC3_p5_k1_2 t_Init_0) 0) (>= ?v_24 5) ?v_2 ?v_3 ?v_4 ?v_5 ?v_6 (<= ?v_0 10) (< ?v_0 10) (>= ?v_0 2) (<= ?v_1 8) (>= ?v_1 0) (>= (- t_MAKE_STRUCTURE_p1_p2_4 t_TREAT_CERAMIC2_p2_3) 2) ?v_2 ?v_3 ?v_4 ?v_5 ?v_6 (< ?v_7 10) (>= ?v_7 2) (>= (- t_MAKE_STRUCTURE_p1_p2_4 t_BAKE_CERAMIC2_p2_k2_3) 10) ?v_2 ?v_3 ?v_4 ?v_5 (< ?v_8 5) (>= ?v_8 2) (<= ?v_9 12) (>= ?v_9 0) (>= (- t_MAKE_STRUCTURE_p1_p2_4 t_TREAT_CERAMIC1_p1_3) 3) (<= ?v_10 5) (>= ?v_10 2) (>= (- t_MAKE_STRUCTURE_p1_p2_4 t_BAKE_CERAMIC1_p1_k2_3) 15) (>= (- t_BAKE_STRUCTURE_p1_p2_k1_5 t_MAKE_STRUCTURE_p1_p2_4) 1) ?v_19 ?v_20 (<= ?v_11 5) (< ?v_11 5) (>= ?v_11 1) (>= ?v_12 4) ?v_2 ?v_3 ?v_4 (< ?v_13 15) (>= ?v_13 2) (<= ?v_14 4) (>= ?v_14 0) (>= (- t_MAKE_STRUCTURE_p3_p4_4 t_TREAT_CERAMIC3_p4_3) 1) (<= ?v_15 3) (>= ?v_15 1) (>= (- t_MAKE_STRUCTURE_p3_p4_4 t_BAKE_CERAMIC3_p4_k1_3) 5) ?v_2 ?v_3 (< ?v_16 10) (>= ?v_16 2) (<= ?v_17 8) (>= ?v_17 0) (>= (- t_MAKE_STRUCTURE_p3_p4_4 t_TREAT_CERAMIC2_p3_3) 2) ?v_2 (>= ?v_18 2) (>= (- t_MAKE_STRUCTURE_p3_p4_4 t_BAKE_CERAMIC2_p3_k2_3) 10) (>= (- t_BAKE_STRUCTURE_p3_p4_k1_5 t_MAKE_STRUCTURE_p3_p4_4) 1) ?v_19 ?v_20 (< ?v_21 5) (>= ?v_21 1) (>= ?v_22 4) ?v_19 (>= ?v_23 1) (>= ?v_24 6) ?v_27 (or ?v_28 (< (- t_BAKE_CERAMIC2_p2_k2_2 t_FIRE_KILN2_k2_2) 10)) (or (>= (- t_BAKE_CERAMIC2_p2_k2_2 t_MAKE_STRUCTURE_p1_p2_4) 1) (< ?v_26 7)) (or (<= ?v_25 0) (> ?v_25 10)) (or (>= ?v_26 3) (> ?v_25 7)) (or (> ?v_26 10) (< (- t_TREAT_CERAMIC2_p2_3 t_BAKE_CERAMIC2_p2_k2_3) 8)) ?v_27 (or ?v_28 (< (- t_BAKE_CERAMIC2_p2_k2_3 t_FIRE_KILN2_k2_2) 10)) ?v_27 (or ?v_28 (< (- t_BAKE_CERAMIC1_p1_k2_2 t_FIRE_KILN2_k2_2) 5)) (or (>= (- t_BAKE_CERAMIC1_p1_k2_2 t_MAKE_STRUCTURE_p1_p2_4) 1) (< ?v_30 10)) (or (<= ?v_29 0) (> ?v_29 15)) (or (>= ?v_30 5) (> ?v_29 10)) (or (> ?v_30 15) (< (- t_TREAT_CERAMIC1_p1_3 t_BAKE_CERAMIC1_p1_k2_3) 12)) (or (<= (- t_BAKE_CERAMIC2_p3_k2_3 t_FIRE_KILN2_k2_2) 10) ?v_28) (or (<= (- t_BAKE_CERAMIC2_p3_k2_2 t_FIRE_KILN2_k2_2) 10) ?v_28) (or (<= (- t_BAKE_CERAMIC3_p4_k2_2 t_FIRE_KILN2_k2_2) 15) ?v_28) (or ?v_31 (< ?v_32 5)) (or (<= ?v_37 3) ?v_36) (or ?v_35 (< (- t_BAKE_STRUCTURE_p1_p2_k1_5 t_FIRE_KILN1_k1_2) 5)) (or (>= (- t_BAKE_CERAMIC3_p4_k2_2 t_MAKE_STRUCTURE_p3_p4_4) 1) (< ?v_34 4)) (or (<= ?v_33 0) (> ?v_33 5)) (or (>= ?v_34 1) (> ?v_33 4)) (or (> ?v_34 5) (< (- t_TREAT_CERAMIC3_p4_3 t_BAKE_CERAMIC3_p4_k1_3) 4)) (or (<= (- t_BAKE_CERAMIC3_p5_k1_2 t_FIRE_KILN1_k1_2) 3) ?v_35) (or (<= (- t_BAKE_STRUCTURE_p3_p4_k1_5 t_FIRE_KILN1_k1_2) 5) ?v_35) (or ?v_36 (< ?v_37 3)) (or (>= (- t_BAKE_CERAMIC2_p3_k2_2 t_MAKE_STRUCTURE_p3_p4_4) 1) (< ?v_39 7)) (or (<= ?v_38 0) (> ?v_38 10)) (or (>= ?v_39 3) (> ?v_38 7)) (or (> ?v_39 10) (< (- t_TREAT_CERAMIC2_p3_3 t_BAKE_CERAMIC2_p3_k2_3) 8)))))))))))))
(check-sat)
(exit)
